2 100 1249
3 4 3 2 2 5 3 3 5 3
1 4
6
6 2 4 7
0 40.0 50.0 0.0 0.0 0 1236
2 45.0 68.0 90.0 10.0 0 1127 95 0 0 0 0 0 1 0 0 0 0
3 45.0 70.0 90.0 30.0 0 1125 22 1 0 0 0 0 1 0 0 0 0
4 42.0 66.0 90.0 10.0 0 1129 23 0 0 0 0 1 0 0 1 0 0
5 42.0 68.0 90.0 10.0 727 782 42 0 1 0 0 0 1 0 1 0 0
6 42.0 65.0 90.0 10.0 0 1130 25 0 1 1 0 1 0 1 0 0 0
7 40.0 69.0 90.0 20.0 621 702 51 0 0 0 0 0 1 0 0 1 0
8 40.0 66.0 90.0 20.0 0 1130 99 0 0 0 0 0 1 0 0 0 0
9 38.0 68.0 90.0 20.0 255 324 45 1 0 1 0 0 0 0 1 0 0
10 38.0 70.0 90.0 10.0 534 605 87 0 0 0 0 1 0 0 0 0 0
11 35.0 66.0 90.0 10.0 357 410 96 0 0 0 0 1 0 0 1 0 0
12 35.0 69.0 90.0 10.0 448 505 13 1 0 0 0 1 1 0 0 0 0
13 25.0 85.0 90.0 20.0 0 1107 63 1 0 0 0 0 0 0 0 0 0
14 22.0 75.0 90.0 30.0 30 92 47 0 0 1 0 0 0 0 0 1 0
15 22.0 85.0 90.0 10.0 0 1106 27 0 0 0 0 0 0 0 1 0 0
16 20.0 80.0 90.0 40.0 384 429 1 0 0 0 1 0 0 0 0 1 0
17 20.0 85.0 90.0 40.0 0 1105 80 0 0 0 0 0 1 0 0 0 0
18 18.0 75.0 90.0 20.0 99 148 96 1 0 0 0 0 0 0 0 1 1
19 15.0 75.0 90.0 20.0 0 1110 82 0 0 0 0 0 0 0 0 0 1
20 15.0 80.0 90.0 10.0 0 1106 86 1 1 1 0 0 0 0 0 0 0
21 30.0 50.0 90.0 10.0 0 1136 64 0 0 1 0 0 0 0 0 0 0
22 30.0 52.0 90.0 20.0 0 1135 62 0 1 0 0 0 0 0 0 0 0
23 28.0 52.0 90.0 20.0 812 883 66 0 0 0 0 1 0 0 1 0 1
24 28.0 55.0 90.0 10.0 732 777 90 0 0 0 1 0 0 0 0 1 1
25 25.0 50.0 90.0 10.0 0 1131 56 0 0 1 1 0 0 0 0 0 0
26 25.0 52.0 90.0 40.0 169 224 72 0 0 0 0 0 1 0 0 0 0
27 25.0 55.0 90.0 10.0 0 1130 49 1 1 0 0 0 0 0 0 0 1
28 23.0 52.0 90.0 10.0 261 316 41 0 0 1 0 0 0 1 0 0 0
29 23.0 55.0 90.0 20.0 0 1128 11 0 0 0 0 0 1 0 0 0 0
30 20.0 50.0 90.0 10.0 0 1126 15 0 0 1 0 1 0 1 0 0 0
31 20.0 55.0 90.0 10.0 449 504 30 0 1 0 0 0 0 0 1 0 0
32 10.0 35.0 90.0 20.0 0 1112 74 0 0 1 0 0 0 0 0 0 0
33 10.0 40.0 90.0 30.0 0 1114 44 0 1 0 0 0 1 0 0 0 0
34 8.0 40.0 90.0 40.0 87 158 84 0 0 0 0 0 0 1 1 0 1
35 8.0 45.0 90.0 20.0 0 1113 69 0 0 1 0 0 0 0 0 0 0
36 5.0 35.0 90.0 10.0 283 344 54 0 0 0 1 0 0 1 0 1 0
37 5.0 45.0 90.0 10.0 665 716 31 0 0 0 1 1 0 1 0 0 0
38 2.0 40.0 90.0 20.0 0 1106 7 0 0 0 0 0 1 0 0 0 0
39 0.0 40.0 90.0 30.0 479 522 39 0 1 0 0 0 0 0 0 1 0
40 0.0 45.0 90.0 20.0 567 624 59 0 1 0 0 0 1 0 1 1 1
41 35.0 30.0 90.0 10.0 264 321 72 1 0 0 1 0 0 0 0 1 1
42 35.0 32.0 90.0 10.0 166 235 27 1 0 0 0 1 1 0 0 0 0
43 33.0 32.0 90.0 20.0 68 149 95 0 0 0 1 0 0 0 0 0 0
44 33.0 35.0 90.0 10.0 0 1129 10 0 1 0 0 0 1 0 0 1 0
45 32.0 30.0 90.0 10.0 359 412 55 1 0 0 1 0 0 0 0 0 0
46 30.0 30.0 90.0 10.0 541 600 10 1 0 0 0 0 0 1 0 0 0
47 30.0 32.0 90.0 30.0 0 1125 91 0 0 0 0 0 0 0 1 0 0
48 30.0 35.0 90.0 10.0 0 1127 90 0 0 0 0 0 0 0 1 1 1
49 28.0 30.0 90.0 10.0 0 1122 59 0 0 0 0 0 1 0 0 0 0
50 28.0 35.0 90.0 10.0 1001 1066 49 0 0 0 0 0 0 1 0 0 0
51 26.0 32.0 90.0 10.0 0 1123 58 0 0 0 1 0 0 0 0 1 0
52 25.0 30.0 90.0 10.0 0 1121 16 0 0 1 0 0 0 0 1 0 0
53 25.0 35.0 90.0 10.0 0 1124 38 1 0 0 0 0 0 0 0 0 0
54 44.0 5.0 90.0 20.0 286 347 88 0 0 0 0 0 1 0 0 0 0
55 42.0 10.0 90.0 40.0 0 1105 48 0 0 0 0 0 0 0 0 1 0
56 42.0 15.0 90.0 10.0 95 158 28 1 1 0 0 0 0 0 1 1 1
57 40.0 5.0 90.0 30.0 385 436 31 0 1 1 0 0 0 0 1 0 0
58 40.0 15.0 90.0 40.0 0 1111 92 0 0 0 0 0 1 0 0 0 0
59 38.0 5.0 90.0 30.0 471 534 97 0 0 0 0 0 0 1 1 0 0
60 38.0 15.0 90.0 10.0 0 1110 54 1 0 0 1 0 0 0 0 0 0
61 35.0 5.0 90.0 20.0 0 1100 19 1 0 0 0 0 0 0 0 0 0
62 50.0 30.0 90.0 10.0 0 1123 47 1 0 0 0 0 0 1 1 0 0
63 50.0 35.0 90.0 20.0 262 317 50 0 0 0 0 0 1 0 0 0 0
64 50.0 40.0 90.0 50.0 0 1131 58 0 0 0 0 0 1 0 0 0 0
65 48.0 30.0 90.0 10.0 632 693 16 1 0 0 0 0 0 0 0 0 1
66 48.0 40.0 90.0 10.0 76 129 86 0 0 0 0 0 1 0 0 0 0
67 47.0 35.0 90.0 10.0 826 875 53 0 0 1 0 0 0 0 0 0 0
68 47.0 40.0 90.0 10.0 12 77 49 1 0 0 0 0 0 0 0 0 0
69 45.0 30.0 90.0 10.0 734 777 32 0 0 0 0 1 0 0 1 0 1
70 45.0 35.0 90.0 10.0 916 969 18 0 1 0 1 1 0 1 0 0 1
71 95.0 30.0 90.0 30.0 387 456 96 1 0 0 0 0 0 0 0 0 0
72 95.0 35.0 90.0 20.0 0 1088 32 0 0 0 1 0 0 0 0 0 0
73 53.0 30.0 90.0 10.0 0 1122 78 0 0 0 1 0 0 0 0 0 0
74 92.0 30.0 90.0 10.0 0 1090 88 0 0 1 1 0 1 0 1 0 0
75 53.0 35.0 90.0 50.0 353 412 33 0 1 1 0 1 0 0 0 0 0
76 45.0 65.0 90.0 20.0 0 1130 72 0 0 0 0 0 0 1 0 0 0
77 90.0 35.0 90.0 10.0 203 260 96 0 0 0 0 0 1 0 0 0 0
78 88.0 30.0 90.0 10.0 574 643 78 1 0 0 0 0 0 0 0 0 0
79 88.0 35.0 90.0 20.0 109 170 37 1 0 1 0 0 1 0 0 0 0
80 87.0 30.0 90.0 10.0 668 731 93 0 0 0 0 0 0 0 0 0 1
81 85.0 25.0 90.0 10.0 769 820 66 0 0 0 0 0 0 1 0 1 1
82 85.0 35.0 90.0 30.0 0 1098 88 0 1 0 0 0 0 1 1 0 1
83 75.0 55.0 90.0 20.0 0 1110 7 0 0 0 0 0 1 0 0 0 0
84 72.0 55.0 90.0 10.0 0 1113 13 0 0 0 0 0 0 1 0 0 0
85 70.0 58.0 90.0 20.0 458 523 86 0 1 0 0 1 0 1 0 0 1
86 68.0 60.0 90.0 30.0 0 1116 17 1 0 0 1 0 0 0 0 0 0
87 66.0 55.0 90.0 10.0 0 1119 68 1 0 0 0 1 0 0 0 1 1
88 65.0 55.0 90.0 20.0 85 144 4 0 0 0 0 1 1 0 0 0 1
89 65.0 60.0 90.0 30.0 645 708 46 0 0 0 0 0 0 0 0 1 0
90 63.0 58.0 90.0 10.0 0 1121 52 0 0 1 0 0 0 1 0 0 0
91 60.0 55.0 90.0 10.0 0 1125 62 1 0 0 0 0 0 0 0 1 0
92 60.0 60.0 90.0 10.0 0 1123 73 1 0 0 0 0 0 0 0 0 0
93 67.0 85.0 90.0 20.0 368 441 98 0 0 0 0 0 1 0 0 0 0
94 65.0 85.0 90.0 40.0 475 518 98 0 1 0 0 0 0 1 0 0 0
95 65.0 82.0 90.0 10.0 0 1105 86 0 1 0 1 0 1 0 0 0 0
96 62.0 80.0 90.0 30.0 0 1108 44 0 0 0 0 0 1 1 0 0 0
97 60.0 80.0 90.0 10.0 0 1109 43 0 0 1 1 0 0 0 1 0 0
98 60.0 85.0 90.0 30.0 0 1105 44 0 0 0 0 1 0 0 0 0 0
99 58.0 75.0 90.0 20.0 0 1115 83 1 1 0 0 0 0 0 1 0 0
100 55.0 80.0 90.0 10.0 743 820 80 0 0 0 1 0 0 0 1 0 1
101 55.0 85.0 90.0 20.0 647 726 53 0 0 0 0 1 0 0 0 0 0